RT is False
Default write of storage_offers_DA.csv just to have a file (but constraint should be inactive)
Reading model...
...model read.
creating competitive generators file...
...competitive generators recorded.
Loading data...
.. day-ahead data with real-time VRE data read.
Compiling instance...
...instance created.
Creating Offer Mitigation (model will solve as dispatch if TRUE)...
Solving...

Welcome to IBM(R) ILOG(R) CPLEX(R) Interactive Optimizer 12.9.0.0
  with Simplex, Mixed Integer & Barrier Optimizers
5725-A06 5725-A29 5724-Y48 5724-Y49 5724-Y54 5724-Y55 5655-Y21
Copyright IBM Corp. 1988, 2019.  All Rights Reserved.

Type 'help' for a list of available commands.
Type 'help' followed by a command name for more
information on commands.

CPLEX> Logfile 'cplex.log' closed.
Logfile 'C:\Users\llavin\Desktop\test919\logs\tmpq3wklxdk.cplex.log' open.
CPLEX> New value for parallel optimization mode: -1
CPLEX> New value for mixed integer optimality gap tolerance: 0.01
CPLEX> New value for integrality tolerance: 1e-09
CPLEX> New value for feasibility tolerance: 0.01
CPLEX> New value for deterministic time limit in ticks: 75000
CPLEX> Problem 'C:\Users\llavin\Desktop\test919\logs\tmpy_9mqiak.pyomo.lp' read.
Read time = 0.06 sec. (3.04 ticks)
CPLEX> Problem name         : C:\Users\llavin\Desktop\test919\logs\tmpy_9mqiak.pyomo.lp
Objective sense      : Minimize
Variables            :   26081  [Nneg: 1,  Box: 21616,  Free: 4464]
Objective nonzeros   :    2496
Linear constraints   :   27515  [Less: 14006,  Greater: 4416,  Equal: 9093]
  Nonzeros           :   89267
  RHS nonzeros       :   12271

Variables            : Min LB: -5000.000        Max UB: 1000000.       
Objective nonzeros   : Min   : 15.73158         Max   : 124.0997       
Linear constraints   :
  Nonzeros           : Min   : 0.8500000        Max   : 3000.000       
  RHS nonzeros       : Min   : 0.4000000        Max   : 5000.000       
CPLEX> CPXPARAM_Parallel                                -1
CPXPARAM_Simplex_Tolerances_Feasibility          0.01
CPXPARAM_DetTimeLimit                            75000
CPXPARAM_MIP_Tolerances_MIPGap                   0.01
CPXPARAM_MIP_Tolerances_Integrality              1.0000000000000001e-09
Parallel mode: opportunistic, using up to 32 threads for concurrent optimization.
Tried aggregator 1 time.
LP Presolve eliminated 21353 rows and 15463 columns.
Aggregator did 770 substitutions.
Reduced LP has 5392 rows, 9848 columns, and 31812 nonzeros.
Presolve time = 0.05 sec. (30.44 ticks)
Symmetry aggregator did 5563 additional substitutions.

Iteration log . . .
Iteration:     1   Dual objective     =             0.000000
Perturbation started.
Iteration:   101   Dual objective     =             0.000000
Iteration:   331   Dual objective     =             1.128310
Iteration:   582   Dual objective     =             1.659323
Iteration:   842   Dual objective     =             1.799829
Iteration:  1048   Dual objective     =             1.912064
Iteration:  1322   Dual objective     =             1.957168
Iteration:  1572   Dual objective     =             1.986840
Iteration:  1785   Dual objective     =             2.012497
Iteration:  1987   Dual objective     =         38709.775871
Iteration:  2190   Dual objective     =        120435.071814
Iteration:  2397   Dual objective     =        126527.734336
Iteration:  2652   Dual objective     =        147736.932626
Iteration:  3038   Dual objective     =        152004.417442
Removing perturbation.
Dual superbasis not built.
Using devex.

Primal simplex solved model.


Primal simplex - Optimal:  Objective =  1.5204487442e+05
Solution time =    0.17 sec.  Iterations = 1646 (1093)
Deterministic time = 80.63 ticks  (468.81 ticks/sec)

CPLEX> Solution written to file 'C:\Users\llavin\Desktop\test919\logs\tmpnolginx5.cplex.sol'.
CPLEX> Exporting results... 
...storage offer mitigation file created
Converting model to MPEC...
...converted
NOTE: initial MIP solve with only storage competitive to get feasible solution
Solving...

Welcome to IBM(R) ILOG(R) CPLEX(R) Interactive Optimizer 12.9.0.0
  with Simplex, Mixed Integer & Barrier Optimizers
5725-A06 5725-A29 5724-Y48 5724-Y49 5724-Y54 5724-Y55 5655-Y21
Copyright IBM Corp. 1988, 2019.  All Rights Reserved.

Type 'help' for a list of available commands.
Type 'help' followed by a command name for more
information on commands.

CPLEX> Logfile 'cplex.log' closed.
Logfile 'C:\Users\llavin\Desktop\test919\logs\tmpuvfkay0m.cplex.log' open.
CPLEX> New value for parallel optimization mode: -1
CPLEX> New value for mixed integer optimality gap tolerance: 0.01
CPLEX> New value for integrality tolerance: 1e-09
CPLEX> New value for feasibility tolerance: 0.01
CPLEX> New value for deterministic time limit in ticks: 75000
CPLEX> Problem 'C:\Users\llavin\Desktop\test919\logs\tmpn22uw3j3.pyomo.lp' read.
Read time = 0.25 sec. (14.78 ticks)
CPLEX> Problem name         : C:\Users\llavin\Desktop\test919\logs\tmpn22uw3j3.pyomo.lp
Objective sense      : Maximize
Variables            :   53805  [Nneg: 1,  Box: 22000,  Free: 4464,
                                 Binary: 27340]
Objective nonzeros   :    8980
Linear constraints   :  123205  [Less: 41346,  Greater: 59096,  Equal: 22763]
  Nonzeros           :  291801
  RHS nonzeros       :   67435

Variables            : Min LB: -5000.000        Max UB: 1000000.       
Objective nonzeros   : Min   : 0.4000000        Max   : 834.2500       
Linear constraints   :
  Nonzeros           : Min   : 0.4000000        Max   : 1000000.       
  RHS nonzeros       : Min   : 0.4000000        Max   : 1000000.       
CPLEX> CPXPARAM_Parallel                                -1
CPXPARAM_Simplex_Tolerances_Feasibility          0.01
CPXPARAM_DetTimeLimit                            75000
CPXPARAM_MIP_Tolerances_MIPGap                   0.01
CPXPARAM_MIP_Tolerances_Integrality              1.0000000000000001e-09
Tried aggregator 3 times.
MIP Presolve eliminated 88646 rows and 18946 columns.
MIP Presolve added 3380 rows and 0 columns.
MIP Presolve modified 24878 coefficients.
Aggregator did 12986 substitutions.
Reduced MIP has 24953 rows, 21317 columns, and 71177 nonzeros.
Reduced MIP has 8409 binaries, 0 generals, 0 SOSs, and 0 indicators.
Presolve time = 0.31 sec. (176.23 ticks)
Probing fixed 397 vars, tightened 2840 bounds.
Probing time = 1.22 sec. (892.02 ticks)
Tried aggregator 2 times.
MIP Presolve eliminated 905 rows and 800 columns.
MIP Presolve modified 2192 coefficients.
Aggregator did 42 substitutions.
Reduced MIP has 24006 rows, 20475 columns, and 68431 nonzeros.
Reduced MIP has 8010 binaries, 0 generals, 0 SOSs, and 0 indicators.
Presolve time = 0.11 sec. (69.35 ticks)
Probing time = 0.05 sec. (16.55 ticks)
Clique table members: 6363.
MIP emphasis: balance optimality and feasibility.
MIP search method: dynamic search.
Parallel mode: opportunistic, using up to 32 threads.
Root relaxation solution time = 0.33 sec. (258.31 ticks)

        Nodes                                         Cuts/
   Node  Left     Objective  IInf  Best Integer    Best Bound    ItCnt     Gap

      0     0     3111.1702  1719                   3111.1702     5943         
      0     0     3111.1702    17                    Cuts: 27     5957         
      0     0     3111.1702    15                     Cuts: 8     5962         
      0     7    infeasible                         3105.7478     5987         
Elapsed time = 7.64 sec. (4466.03 ticks, tree = 0.02 MB, solutions = 0)
    467    83   -14832.8664     6                   3094.5556     7507         
*   811   394      integral     0   -15851.3941     3094.5556    12014  119.52%
    976   607   -14849.1810     5      313.8438     3094.5556    15117  886.02%
   1425   396     3094.5120     3      313.8438     3094.5556    18604  886.02%
   1703   507     3094.5120     3      313.8438     3094.5556    31559  886.02%
   1899   642     3054.4225     9      313.8438     3094.5556    32492  886.02%
   2087   592        cutoff            313.8438     3094.5556    32078  886.02%
   2266   693        cutoff            313.8438     3094.5556    32804  886.02%
   2423   695        cutoff            313.8438     3094.5556    32815  886.02%
*  2481   742      integral     0      594.9984     3094.5556    33126  420.09%
   2562   731    infeasible            594.9984     3094.5556    32975  420.09%
   3085   796     3144.4238   142      594.9984     3094.5556    33718  420.09%
Elapsed time = 20.73 sec. (7575.79 ticks, tree = 3.47 MB, solutions = 4)
   3503   966    infeasible            594.9984     3094.5556    35205  420.09%
*  3703  1052      integral     0     1120.0967     3094.5556    35885  176.28%
   3935  1005     3094.5120     1     1120.0967     3094.5556    35646  176.28%
   4398   962        cutoff           1120.0967     3094.5556    35217  176.28%
   4782  1061     3094.5120     1     1120.0967     3094.5556    36144  176.28%
*  4874  1174      integral     0     3144.4238     3094.5556    36872   -1.59%
   5080  1273    infeasible           3144.4238     3094.5556    37088   -1.59%
   5295  1207     3092.6345     2     3144.4238     3094.5556    36756   -1.59%
   5464  1273    infeasible           3144.4238     3094.5556    37093   -1.59%
   5591  1210    infeasible           3144.4238     3094.5556    36769   -1.59%
   5674  1402     2577.1587     1     3144.4238     3094.5556    37698   -1.59%
   5757  1276     3052.6102     2     3144.4238     3094.5556    37073   -1.59%
Elapsed time = 33.45 sec. (17257.03 ticks, tree = 6.50 MB, solutions = 7)
   5786  1277     3094.5120     1     3144.4238     3094.5556    37126   -1.59%

Implied bound cuts applied:  7
Flow cuts applied:  10
Gomory fractional cuts applied:  8

Root node processing (before b&c):
  Real time             =    6.69 sec. (4455.86 ticks)
Parallel b&c, 32 threads:
  Real time             =   27.28 sec. (14024.30 ticks)
  Sync time (average)   =    0.43 sec.
  Wait time (average)   =    0.00 sec.
                          ------------
Total (root+branch&cut) =   33.97 sec. (18480.16 ticks)

Solution pool: 7 solutions saved.

MIP - Integer optimal solution:  Objective =  3.1444237835e+03
Solution time =   34.00 sec.  Iterations = 38837  Nodes = 5790
Deterministic time = 18480.31 ticks  (543.54 ticks/sec)

CPLEX> Incumbent solution written to file 'C:\Users\llavin\Desktop\test919\logs\tmpk8npjuv2.cplex.sol'.
CPLEX> NOTE: no warmstart specified for MIP iteration, default behavior is true
NOTE: resolving with all competitive generators using storage-only solution to warmstart
Solving...

Welcome to IBM(R) ILOG(R) CPLEX(R) Interactive Optimizer 12.9.0.0
  with Simplex, Mixed Integer & Barrier Optimizers
5725-A06 5725-A29 5724-Y48 5724-Y49 5724-Y54 5724-Y55 5655-Y21
Copyright IBM Corp. 1988, 2019.  All Rights Reserved.

Type 'help' for a list of available commands.
Type 'help' followed by a command name for more
information on commands.

CPLEX> Logfile 'cplex.log' closed.
Logfile 'C:\Users\llavin\Desktop\test919\logs\tmpn8lvxr0q.cplex.log' open.
CPLEX> New value for parallel optimization mode: -1
CPLEX> New value for mixed integer optimality gap tolerance: 0.01
CPLEX> New value for integrality tolerance: 1e-09
CPLEX> New value for feasibility tolerance: 0.01
CPLEX> New value for deterministic time limit in ticks: 75000
CPLEX> Problem 'C:\Users\llavin\Desktop\test919\logs\tmp7v911pu1.pyomo.lp' read.
Read time = 0.25 sec. (14.81 ticks)
CPLEX> MIP start file 'C:\Users\llavin\Desktop\test919\logs\tmp_9ifqqv9.cplex.mst' read.
CPLEX> Problem name         : C:\Users\llavin\Desktop\test919\logs\tmp7v911pu1.pyomo.lp
Objective sense      : Maximize
Variables            :   54525  [Nneg: 1,  Box: 22720,  Free: 4464,
                                 Binary: 27340]
Objective nonzeros   :    9676
Linear constraints   :  123205  [Less: 41346,  Greater: 59096,  Equal: 22763]
  Nonzeros           :  291801
  RHS nonzeros       :   67435

Variables            : Min LB: -5000.000        Max UB: 1000000.       
Objective nonzeros   : Min   : 0.4000000        Max   : 785.1833       
Linear constraints   :
  Nonzeros           : Min   : 0.4000000        Max   : 1000000.       
  RHS nonzeros       : Min   : 0.4000000        Max   : 1000000.       
CPLEX> CPXPARAM_Parallel                                -1
CPXPARAM_Simplex_Tolerances_Feasibility          0.01
CPXPARAM_DetTimeLimit                            75000
CPXPARAM_MIP_Tolerances_MIPGap                   0.01
CPXPARAM_MIP_Tolerances_Integrality              1.0000000000000001e-09
Warning:  No solution found from 1 MIP starts.
Retaining values of one MIP start for possible repair.
Tried aggregator 3 times.
MIP Presolve eliminated 88646 rows and 19666 columns.
MIP Presolve added 3380 rows and 0 columns.
MIP Presolve modified 24878 coefficients.
Aggregator did 12986 substitutions.
Reduced MIP has 24953 rows, 21317 columns, and 71177 nonzeros.
Reduced MIP has 8409 binaries, 0 generals, 0 SOSs, and 0 indicators.
Presolve time = 0.31 sec. (176.60 ticks)
Probing fixed 397 vars, tightened 2840 bounds.
Probing time = 1.22 sec. (892.02 ticks)
Tried aggregator 2 times.
MIP Presolve eliminated 905 rows and 800 columns.
MIP Presolve modified 2192 coefficients.
Aggregator did 42 substitutions.
Reduced MIP has 24006 rows, 20475 columns, and 68431 nonzeros.
Reduced MIP has 8010 binaries, 0 generals, 0 SOSs, and 0 indicators.
Presolve time = 0.11 sec. (69.35 ticks)
Probing time = 0.03 sec. (16.55 ticks)
Clique table members: 6363.
MIP emphasis: balance optimality and feasibility.
MIP search method: dynamic search.
Parallel mode: opportunistic, using up to 32 threads.
Root relaxation solution time = 0.34 sec. (268.66 ticks)

        Nodes                                         Cuts/
   Node  Left     Objective  IInf  Best Integer    Best Bound    ItCnt     Gap

      0     0   113301.0660  1849                 113301.0660     5862         
      0     0   109581.4790   704                   Cuts: 659     6188         
      0     0   108595.7197   589                   Cuts: 346     6331         
      0     0   108471.0793   547                   Cuts: 208     6421         
      0     0   107384.3200   490                   Cuts: 121     6518         
      0     0   107302.8933   474                    Cuts: 82     6556         
      0     0   107221.4399   470                    Cuts: 44     6571         
      0     0   107221.4399   463                    Cuts: 45     6583         
      0     0   105223.0483   446                    Cuts: 43     6648         
      0     0   105129.4451   445                    Cuts: 43     6656         
      0     0   105129.4451   442                    Cuts: 45     6661         
      0     0   105129.4451   442                    Cuts: 32     6662         
Repair heuristic found nothing.
      0    10    infeasible                        92278.1510     7088         
Elapsed time = 11.39 sec. (6808.19 ticks, tree = 0.02 MB, solutions = 0)
    388   149    48594.4422   342                  61652.2983    11380         
    897   533    42511.8192   360                  53540.7774    17350         
   1591   623     7338.0751   309                  53540.7774    19280         
   2285   997   -93607.2450   285                  53540.7774    23346         
   3082  1625    -7551.4150   277                  53540.7774    28092         
   4156  2275   -20285.9699   244                  53540.7774    30727         
   5343  3907    -1423.1251   237                  53540.7774    32997         
   6445  3485      974.3939   251                  53540.7774    32899         
   7565  4656     8633.5426   277                  53540.7774    33163         
  11363  8946    infeasible                        53540.7774    37419         
Elapsed time = 31.25 sec. (9912.06 ticks, tree = 76.59 MB, solutions = 0)
  13602 11061   -16357.4272   303                  52483.9878    67597         
  16453 14663    50718.7896   342                  51724.6825   107872         
  19604 14691   -16918.6619   322                  50859.1347   109068         
  22355 18534     1409.1040   312                  50780.8463   156467         
  25354 20945   -23800.3891   351                  50729.0944   188297         
  28897 22344   -36846.3603   351                  50726.6918   200467         
  31998 26937   -78100.7458    58                  50555.4807   237950         
  35113 27178    10308.6632   322                  49769.3516   241985         
  38789 31953   -26523.8756    87                  49425.9601   282888         
  42445 33226    30931.1871   316                  49152.4741   289751         
Elapsed time = 86.69 sec. (19452.07 ticks, tree = 370.54 MB, solutions = 0)
  46626 38982     1432.8426   163                  49046.5058   320164         
  50210 42474    19625.4572   255                  49001.7146   333500         
  53182 45694    40215.6697   324                  49001.7146   355573         
  56295 45755    -1102.1251   328                  49001.7146   357114         
  59561 46170    infeasible                        49001.7146   358239         
  62388 44484     4052.8360   328                  49001.7146   349547         
  64914 46455      532.7784   210                  49001.7146   363786         
  67269 47849     4065.4818    66                  49001.7146   376148         
  69468 47644   -12932.2631   317                  49001.7146   370982         
  71396 46096   -20013.4495   338                  49001.7146   357599         
Elapsed time = 134.55 sec. (28991.14 ticks, tree = 497.18 MB, solutions = 0)
  73316 51372    24981.4384   150                  49001.7146   408779         
  75096 46831    18064.6761   109                  49001.7146   363650         
  76931 48773     3171.5187    76                  49001.7146   384112         
  78674 60033   -10815.3645   324                  49001.7146   506448         
  80476 50412      312.1711   181                  49001.7146   400010         
  82413 62051     4269.4274    84                  49001.7146   526801         
  84537 52456      699.0187   240                  49001.7146   417797         
  86650 48613    18128.8543   193                  49001.7146   385438         
  88751 52894     3347.4976   216                  49001.7146   424969         
  90504 54818    16293.6047   294                  49001.7146   442812         
Elapsed time = 172.66 sec. (38532.37 ticks, tree = 586.25 MB, solutions = 0)
  92081 48910    infeasible                        49001.7146   385692         
  93488 48963     7322.5061   321                  49001.7146   387139         
  95175 50647    -6330.5759   321                  49001.7146   399728         
  96905 52198    27972.7917   327                  49001.7146   416454         
  98706 61802     4969.9180   298                  49001.7146   528585         
 100383 51248   -29169.9601   374                  49001.7146   411464         
 101852 61930    18044.3403   299                  49001.7146   531362         
 103176 51799    30869.8904   313                  49001.7146   415181         
 104261 62031    13488.0464   301                  49001.7146   534387         
 105078 57499   -25664.6554   329                  49001.7146   473462         
Elapsed time = 192.13 sec. (48075.82 ticks, tree = 613.31 MB, solutions = 0)
 105634 61195   -15804.8277   246                  49001.7146   524385         
 106268 55089  -308814.2860   298                  49001.7146   444419         
 106946 57471   -13838.8617   182                  49001.7146   479306         
 107493 61459   -30124.2372   363                  49001.7146   526291         
 107996 62411    20354.5793   303                  49001.7146   541453         
 108534 58001   -60212.8332   306                  49001.7146   478376         
 109181 60058   -53456.5019   229                  49001.7146   503156         
 109863 60338    25080.3001   304                  49001.7146   508442         
 110473 61883   -13960.8715   295                  49001.7146   529268         
 111095 58383     8469.2933   310                  49001.7146   480588         
Elapsed time = 203.05 sec. (57623.64 ticks, tree = 622.89 MB, solutions = 0)
 111601 60610   -35774.0869   320                  49001.7146   510695         
 112081 58517   -80040.1981   273                  49001.7146   482922         
 112511 63184     8883.4062    37                  49001.7146   545713         
 112810 62221   -44221.2289   301                  49001.7146   535281         
 113182 60873    24669.0682   281                  49001.7146   514957         
 113567 63390   -22006.3872   219                  49001.7146   548450         
 113927 60924   -36597.9909   310                  49001.7146   510567         
 114276 60992    17829.7203   307                  49001.7146   511290         
 114641 63626    23932.7654   321                  49001.7146   550723         
 114912 63685   -25117.5381   301                  49001.7146   551833         
Elapsed time = 212.66 sec. (67178.06 ticks, tree = 674.23 MB, solutions = 0)
 115156 62743    11017.9455   218                  49001.7146   542221         
 115347 63812   -17687.7240   301                  49001.7146   554155         
 115534 63883     6638.2480   289                  49001.7146   555006         
 115645 63972   -27996.1553   282                  49001.7146   555899         
 115770 64091   -27996.1553   173                  49001.7146   556077         
 115900 64208    23100.3236   321                  49001.7146   556341         
 115905 61966    infeasible                        49001.7146   526647         

Clique cuts applied:  4
Cover cuts applied:  21
Implied bound cuts applied:  32
Flow cuts applied:  457
Mixed integer rounding cuts applied:  47
Gomory fractional cuts applied:  77

Root node processing (before b&c):
  Real time             =   10.45 sec. (6800.15 ticks)
Parallel b&c, 32 threads:
  Real time             =  208.39 sec. (68937.90 ticks)
  Sync time (average)   =    1.43 sec.
  Wait time (average)   =    0.00 sec.
                          ------------
Total (root+branch&cut) =  218.84 sec. (75738.05 ticks)


MIP - Deterministic time limit exceeded, no integer solution.
Current MIP best bound =  4.9001714614e+04 (gap is infinite)
Solution time =  218.88 sec.  Iterations = 942990  Nodes = 115908 (101890)
Deterministic time = 75738.21 ticks  (346.03 ticks/sec)

CPLEX> CPLEX Error  1217: No solution exists.
No file written.
CPLEX> gap is infinite, so writing 0
Exporting results... 
